NAME PortOpt_n20_m8_inst_2
ROWS
 N  OBJ
 E  budget  
 L  return  
 L  uncertain_risk
 L  fixed_risk
COLUMNS
    asset[0]  budget    1
    asset[0]  return    -1.3226151174846823e+00
    asset[1]  budget    1
    asset[1]  return    -3.4979260847776970e+00
    asset[2]  budget    1
    asset[2]  return    -2.0350147863839743e+00
    asset[3]  budget    1
    asset[3]  return    -2.3435995332416151e+00
    asset[4]  budget    1
    asset[4]  return    -1.8241111336018949e+00
    asset[5]  budget    1
    asset[5]  return    -3.1194412606657527e+00
    asset[6]  budget    1
    asset[6]  return    -2.6977404096279938e+00
    asset[7]  budget    1
    asset[7]  return    -1.7740505790665624e+00
    asset[8]  budget    1
    asset[8]  return    -4.0416856075912095e+00
    asset[9]  budget    1
    asset[9]  return    -1.9685056110416612e+00
    asset[10]  budget    1
    asset[10]  return    -2.2454896308935632e+00
    asset[11]  budget    1
    asset[11]  return    -1.5278176486401882e+00
    asset[12]  budget    1
    asset[12]  return    -2.0021616988163333e+00
    asset[13]  budget    1
    asset[13]  return    -3.8535012226733851e+00
    asset[14]  budget    1
    asset[14]  return    -1.5030933722985935e+00
    asset[15]  budget    1
    asset[15]  return    -2.0334844982866129e+00
    asset[16]  budget    1
    asset[16]  return    -2.0306175201124708e+00
    asset[17]  budget    1
    asset[17]  return    -1.9411078292247903e+00
    asset[18]  budget    1
    asset[18]  return    -1.1521995793999327e+00
    asset[19]  budget    1
    asset[19]  return    -1.8603977653442918e+00
    return_var  OBJ       -1
    return_var  return    1
    uncertain_risk_var  OBJ       1
    uncertain_risk_var  uncertain_risk  -1
    fixed_risk_var  OBJ       1
    fixed_risk_var  fixed_risk  -1
RHS
    RHS1      budget    1
BOUNDS
 FR BND1      asset[0]
 FR BND1      asset[1]
 FR BND1      asset[2]
 FR BND1      asset[3]
 FR BND1      asset[4]
 FR BND1      asset[5]
 FR BND1      asset[6]
 FR BND1      asset[7]
 FR BND1      asset[8]
 FR BND1      asset[9]
 FR BND1      asset[10]
 FR BND1      asset[11]
 FR BND1      asset[12]
 FR BND1      asset[13]
 FR BND1      asset[14]
 FR BND1      asset[15]
 FR BND1      asset[16]
 FR BND1      asset[17]
 FR BND1      asset[18]
 FR BND1      asset[19]
 FR BND1      return_var
 FR BND1      uncertain_risk_var
 FR BND1      fixed_risk_var
QCMATRIX   uncertain_risk
    asset[0]  asset[0]  3.8467761442280750e-02
    asset[0]  asset[1]  6.8794209216072252e-03
    asset[1]  asset[0]  6.8794209216072252e-03
    asset[0]  asset[2]  3.8886582210242663e-03
    asset[2]  asset[0]  3.8886582210242663e-03
    asset[0]  asset[3]  6.1128828627488342e-03
    asset[3]  asset[0]  6.1128828627488342e-03
    asset[0]  asset[4]  -9.5937488723611924e-04
    asset[4]  asset[0]  -9.5937488723611924e-04
    asset[0]  asset[5]  -1.2266809104318752e-02
    asset[5]  asset[0]  -1.2266809104318752e-02
    asset[0]  asset[6]  1.4355144688481506e-02
    asset[6]  asset[0]  1.4355144688481506e-02
    asset[0]  asset[7]  -2.7596444309807870e-04
    asset[7]  asset[0]  -2.7596444309807870e-04
    asset[0]  asset[8]  1.2248952383777226e-02
    asset[8]  asset[0]  1.2248952383777226e-02
    asset[0]  asset[9]  2.1577550124302213e-04
    asset[9]  asset[0]  2.1577550124302213e-04
    asset[0]  asset[10]  -1.2827408292560862e-03
    asset[10]  asset[0]  -1.2827408292560862e-03
    asset[0]  asset[11]  -2.0403462230292754e-02
    asset[11]  asset[0]  -2.0403462230292754e-02
    asset[0]  asset[12]  9.1964995841473038e-03
    asset[12]  asset[0]  9.1964995841473038e-03
    asset[0]  asset[13]  -8.7736862335542360e-03
    asset[13]  asset[0]  -8.7736862335542360e-03
    asset[0]  asset[14]  -7.1971755010590650e-03
    asset[14]  asset[0]  -7.1971755010590650e-03
    asset[0]  asset[15]  1.4374032808697246e-02
    asset[15]  asset[0]  1.4374032808697246e-02
    asset[0]  asset[16]  8.8518385687959050e-06
    asset[16]  asset[0]  8.8518385687959050e-06
    asset[0]  asset[17]  -3.3287708565247265e-02
    asset[17]  asset[0]  -3.3287708565247265e-02
    asset[0]  asset[18]  6.0704570300364677e-03
    asset[18]  asset[0]  6.0704570300364677e-03
    asset[0]  asset[19]  1.7499866860448765e-03
    asset[19]  asset[0]  1.7499866860448765e-03
    asset[1]  asset[1]  2.2484412822287629e-02
    asset[1]  asset[2]  -6.1726196577112737e-04
    asset[2]  asset[1]  -6.1726196577112737e-04
    asset[1]  asset[3]  -1.0884063308400445e-02
    asset[3]  asset[1]  -1.0884063308400445e-02
    asset[1]  asset[4]  -2.0258430456690769e-02
    asset[4]  asset[1]  -2.0258430456690769e-02
    asset[1]  asset[5]  -1.1814131267940318e-02
    asset[5]  asset[1]  -1.1814131267940318e-02
    asset[1]  asset[6]  -9.4010315724980765e-04
    asset[6]  asset[1]  -9.4010315724980765e-04
    asset[1]  asset[7]  1.1257464174949299e-03
    asset[7]  asset[1]  1.1257464174949299e-03
    asset[1]  asset[8]  2.2875198468749591e-02
    asset[8]  asset[1]  2.2875198468749591e-02
    asset[1]  asset[9]  2.8956062099429410e-02
    asset[9]  asset[1]  2.8956062099429410e-02
    asset[1]  asset[10]  1.0517008313036411e-02
    asset[10]  asset[1]  1.0517008313036411e-02
    asset[1]  asset[11]  -2.0340672232268608e-02
    asset[11]  asset[1]  -2.0340672232268608e-02
    asset[1]  asset[12]  -2.5105665546900816e-02
    asset[12]  asset[1]  -2.5105665546900816e-02
    asset[1]  asset[13]  -8.0511719224929355e-03
    asset[13]  asset[1]  -8.0511719224929355e-03
    asset[1]  asset[14]  -2.4021310160904346e-02
    asset[14]  asset[1]  -2.4021310160904346e-02
    asset[1]  asset[15]  5.9882048696738204e-03
    asset[15]  asset[1]  5.9882048696738204e-03
    asset[1]  asset[16]  -2.1667516542916640e-02
    asset[16]  asset[1]  -2.1667516542916640e-02
    asset[1]  asset[17]  -1.8670189781912844e-02
    asset[17]  asset[1]  -1.8670189781912844e-02
    asset[1]  asset[18]  1.1445498278274513e-02
    asset[18]  asset[1]  1.1445498278274513e-02
    asset[1]  asset[19]  -2.8052233767238810e-02
    asset[19]  asset[1]  -2.8052233767238810e-02
    asset[2]  asset[2]  1.5290330853138070e-02
    asset[2]  asset[3]  -6.0479713127518844e-03
    asset[3]  asset[2]  -6.0479713127518844e-03
    asset[2]  asset[4]  1.0978686988361342e-02
    asset[4]  asset[2]  1.0978686988361342e-02
    asset[2]  asset[5]  -3.8348199290606268e-03
    asset[5]  asset[2]  -3.8348199290606268e-03
    asset[2]  asset[6]  1.8780911594953457e-03
    asset[6]  asset[2]  1.8780911594953457e-03
    asset[2]  asset[7]  -2.3369145438559679e-03
    asset[7]  asset[2]  -2.3369145438559679e-03
    asset[2]  asset[8]  -2.3313642774989746e-03
    asset[8]  asset[2]  -2.3313642774989746e-03
    asset[2]  asset[9]  -8.1363159816401527e-03
    asset[9]  asset[2]  -8.1363159816401527e-03
    asset[2]  asset[10]  -1.9153746044939088e-03
    asset[10]  asset[2]  -1.9153746044939088e-03
    asset[2]  asset[11]  8.0943736553585367e-03
    asset[11]  asset[2]  8.0943736553585367e-03
    asset[2]  asset[12]  7.7868323845439579e-03
    asset[12]  asset[2]  7.7868323845439579e-03
    asset[2]  asset[13]  6.4064951064468946e-03
    asset[13]  asset[2]  6.4064951064468946e-03
    asset[2]  asset[14]  2.0628009158905700e-03
    asset[14]  asset[2]  2.0628009158905700e-03
    asset[2]  asset[15]  -4.1908517610139712e-03
    asset[15]  asset[2]  -4.1908517610139712e-03
    asset[2]  asset[16]  1.1420391011630209e-02
    asset[16]  asset[2]  1.1420391011630209e-02
    asset[2]  asset[17]  -6.3481878698720190e-03
    asset[17]  asset[2]  -6.3481878698720190e-03
    asset[2]  asset[18]  -1.4153915033988645e-03
    asset[18]  asset[2]  -1.4153915033988645e-03
    asset[2]  asset[19]  6.1399778472214445e-03
    asset[19]  asset[2]  6.1399778472214445e-03
    asset[3]  asset[3]  4.6641405858494106e-02
    asset[3]  asset[4]  -4.2822311740359220e-03
    asset[4]  asset[3]  -4.2822311740359220e-03
    asset[3]  asset[5]  1.0535178244173913e-02
    asset[5]  asset[3]  1.0535178244173913e-02
    asset[3]  asset[6]  4.3788824562515285e-03
    asset[6]  asset[3]  4.3788824562515285e-03
    asset[3]  asset[7]  3.1181991288567615e-03
    asset[7]  asset[3]  3.1181991288567615e-03
    asset[3]  asset[8]  6.9073750902837253e-03
    asset[8]  asset[3]  6.9073750902837253e-03
    asset[3]  asset[9]  -1.3650674810605475e-02
    asset[9]  asset[3]  -1.3650674810605475e-02
    asset[3]  asset[10]  -1.1515221483019523e-02
    asset[10]  asset[3]  -1.1515221483019523e-02
    asset[3]  asset[11]  -1.4598771298731165e-02
    asset[11]  asset[3]  -1.4598771298731165e-02
    asset[3]  asset[12]  1.0980319193934034e-02
    asset[12]  asset[3]  1.0980319193934034e-02
    asset[3]  asset[13]  -5.5541007088563245e-03
    asset[13]  asset[3]  -5.5541007088563245e-03
    asset[3]  asset[14]  -1.9564108931614294e-03
    asset[14]  asset[3]  -1.9564108931614294e-03
    asset[3]  asset[15]  1.0079470961245295e-02
    asset[15]  asset[3]  1.0079470961245295e-02
    asset[3]  asset[16]  3.0809223988303271e-03
    asset[16]  asset[3]  3.0809223988303271e-03
    asset[3]  asset[17]  -2.0605956078276030e-02
    asset[17]  asset[3]  -2.0605956078276030e-02
    asset[3]  asset[18]  3.5464824753223979e-03
    asset[18]  asset[3]  3.5464824753223979e-03
    asset[3]  asset[19]  1.8441225979771075e-02
    asset[19]  asset[3]  1.8441225979771075e-02
    asset[4]  asset[4]  3.1569902775260276e-02
    asset[4]  asset[5]  4.7548140941963300e-03
    asset[5]  asset[4]  4.7548140941963300e-03
    asset[4]  asset[6]  4.8913119923210957e-03
    asset[6]  asset[4]  4.8913119923210957e-03
    asset[4]  asset[7]  -3.2191915984732455e-03
    asset[7]  asset[4]  -3.2191915984732455e-03
    asset[4]  asset[8]  -3.2438050237130714e-02
    asset[8]  asset[4]  -3.2438050237130714e-02
    asset[4]  asset[9]  -3.1638906524452379e-02
    asset[9]  asset[4]  -3.1638906524452379e-02
    asset[4]  asset[10]  -7.8999019157684758e-03
    asset[10]  asset[4]  -7.8999019157684758e-03
    asset[4]  asset[11]  3.1101261477430989e-02
    asset[11]  asset[4]  3.1101261477430989e-02
    asset[4]  asset[12]  2.7672119383468793e-02
    asset[12]  asset[4]  2.7672119383468793e-02
    asset[4]  asset[13]  1.2305722905165501e-02
    asset[13]  asset[4]  1.2305722905165501e-02
    asset[4]  asset[14]  2.7217502681419033e-02
    asset[14]  asset[4]  2.7217502681419033e-02
    asset[4]  asset[15]  -8.2434932894829508e-03
    asset[15]  asset[4]  -8.2434932894829508e-03
    asset[4]  asset[16]  3.0449760576764014e-02
    asset[16]  asset[4]  3.0449760576764014e-02
    asset[4]  asset[17]  1.6253441996347866e-02
    asset[17]  asset[4]  1.6253441996347866e-02
    asset[4]  asset[18]  -1.3083813058168135e-02
    asset[18]  asset[4]  -1.3083813058168135e-02
    asset[4]  asset[19]  3.5025088603621468e-02
    asset[19]  asset[4]  3.5025088603621468e-02
    asset[5]  asset[5]  1.0420022944355201e-02
    asset[5]  asset[6]  -3.1875302386640833e-03
    asset[6]  asset[5]  -3.1875302386640833e-03
    asset[5]  asset[7]  8.8523077198606021e-05
    asset[7]  asset[5]  8.8523077198606021e-05
    asset[5]  asset[8]  -9.1760731708644613e-03
    asset[8]  asset[5]  -9.1760731708644613e-03
    asset[5]  asset[9]  -1.2667513756466017e-02
    asset[9]  asset[5]  -1.2667513756466017e-02
    asset[5]  asset[10]  -5.0758723669204944e-03
    asset[10]  asset[5]  -5.0758723669204944e-03
    asset[5]  asset[11]  9.5292137235117348e-03
    asset[11]  asset[5]  9.5292137235117348e-03
    asset[5]  asset[12]  8.4136793880153805e-03
    asset[12]  asset[5]  8.4136793880153805e-03
    asset[5]  asset[13]  2.4731030021318953e-03
    asset[13]  asset[5]  2.4731030021318953e-03
    asset[5]  asset[14]  1.0953655952184383e-02
    asset[14]  asset[5]  1.0953655952184383e-02
    asset[5]  asset[15]  -4.9393950214793869e-03
    asset[15]  asset[5]  -4.9393950214793869e-03
    asset[5]  asset[16]  6.4140251640061076e-03
    asset[16]  asset[5]  6.4140251640061076e-03
    asset[5]  asset[17]  1.4257572893488304e-02
    asset[17]  asset[5]  1.4257572893488304e-02
    asset[5]  asset[18]  -7.0272292238169401e-03
    asset[18]  asset[5]  -7.0272292238169401e-03
    asset[5]  asset[19]  8.6464233605693542e-03
    asset[19]  asset[5]  8.6464233605693542e-03
    asset[6]  asset[6]  8.8343875205179299e-03
    asset[6]  asset[7]  -4.2101069848677437e-04
    asset[7]  asset[6]  -4.2101069848677437e-04
    asset[6]  asset[8]  -4.4742714498373654e-03
    asset[8]  asset[6]  -4.4742714498373654e-03
    asset[6]  asset[9]  -6.5699193688127464e-03
    asset[9]  asset[6]  -6.5699193688127464e-03
    asset[6]  asset[10]  -5.4855256110770165e-04
    asset[10]  asset[6]  -5.4855256110770165e-04
    asset[6]  asset[11]  -1.1489622556382579e-03
    asset[11]  asset[6]  -1.1489622556382579e-03
    asset[6]  asset[12]  8.4985099850492032e-03
    asset[12]  asset[6]  8.4985099850492032e-03
    asset[6]  asset[13]  -2.2371517437495591e-03
    asset[13]  asset[6]  -2.2371517437495591e-03
    asset[6]  asset[14]  4.6377407004745746e-03
    asset[14]  asset[6]  4.6377407004745746e-03
    asset[6]  asset[15]  2.5528514605930629e-03
    asset[15]  asset[6]  2.5528514605930629e-03
    asset[6]  asset[16]  5.8375950135064018e-03
    asset[16]  asset[6]  5.8375950135064018e-03
    asset[6]  asset[17]  -1.1765903551043608e-02
    asset[17]  asset[6]  -1.1765903551043608e-02
    asset[6]  asset[18]  -1.1996199516719334e-03
    asset[18]  asset[6]  -1.1996199516719334e-03
    asset[6]  asset[19]  7.5475909179137492e-03
    asset[19]  asset[6]  7.5475909179137492e-03
    asset[7]  asset[7]  2.6413166181319327e-03
    asset[7]  asset[8]  7.8274602033504073e-03
    asset[8]  asset[7]  7.8274602033504073e-03
    asset[7]  asset[9]  4.3144324366558937e-03
    asset[9]  asset[7]  4.3144324366558937e-03
    asset[7]  asset[10]  2.3545502721180624e-03
    asset[10]  asset[7]  2.3545502721180624e-03
    asset[7]  asset[11]  -8.3073731631877687e-03
    asset[11]  asset[7]  -8.3073731631877687e-03
    asset[7]  asset[12]  -7.6686364645094799e-03
    asset[12]  asset[7]  -7.6686364645094799e-03
    asset[7]  asset[13]  -2.6701610223166172e-03
    asset[13]  asset[7]  -2.6701610223166172e-03
    asset[7]  asset[14]  -6.0982756921101784e-03
    asset[14]  asset[7]  -6.0982756921101784e-03
    asset[7]  asset[15]  6.7279028276678102e-03
    asset[15]  asset[7]  6.7279028276678102e-03
    asset[7]  asset[16]  -2.5063602222585675e-03
    asset[16]  asset[7]  -2.5063602222585675e-03
    asset[7]  asset[17]  -8.4083091479504254e-03
    asset[17]  asset[7]  -8.4083091479504254e-03
    asset[7]  asset[18]  7.1063141949094747e-03
    asset[18]  asset[7]  7.1063141949094747e-03
    asset[7]  asset[19]  -1.5114261862805524e-03
    asset[19]  asset[7]  -1.5114261862805524e-03
    asset[8]  asset[8]  6.2139023507286145e-02
    asset[8]  asset[9]  3.4979986572848884e-02
    asset[9]  asset[8]  3.4979986572848884e-02
    asset[8]  asset[10]  1.0336150823820292e-02
    asset[10]  asset[8]  1.0336150823820292e-02
    asset[8]  asset[11]  -5.4414230019794424e-02
    asset[11]  asset[8]  -5.4414230019794424e-02
    asset[8]  asset[12]  -3.6918682416344564e-02
    asset[12]  asset[8]  -3.6918682416344564e-02
    asset[8]  asset[13]  -1.6415612745033319e-02
    asset[13]  asset[8]  -1.6415612745033319e-02
    asset[8]  asset[14]  -4.4266045300107984e-02
    asset[14]  asset[8]  -4.4266045300107984e-02
    asset[8]  asset[15]  2.6038903055029164e-02
    asset[15]  asset[8]  2.6038903055029164e-02
    asset[8]  asset[16]  -2.8471355659422215e-02
    asset[16]  asset[8]  -2.8471355659422215e-02
    asset[8]  asset[17]  -4.8193783507998203e-02
    asset[17]  asset[8]  -4.8193783507998203e-02
    asset[8]  asset[18]  3.1268898440748719e-02
    asset[18]  asset[8]  3.1268898440748719e-02
    asset[8]  asset[19]  -4.0840268747011181e-02
    asset[19]  asset[8]  -4.0840268747011181e-02
    asset[9]  asset[9]  4.5331217602711540e-02
    asset[9]  asset[10]  1.5219836237144183e-02
    asset[10]  asset[9]  1.5219836237144183e-02
    asset[9]  asset[11]  -3.2248570471095472e-02
    asset[11]  asset[9]  -3.2248570471095472e-02
    asset[9]  asset[12]  -4.2917410725733379e-02
    asset[12]  asset[9]  -4.2917410725733379e-02
    asset[9]  asset[13]  -1.0926646620666766e-02
    asset[13]  asset[9]  -1.0926646620666766e-02
    asset[9]  asset[14]  -3.6789608449614222e-02
    asset[14]  asset[9]  -3.6789608449614222e-02
    asset[9]  asset[15]  1.2806231049846642e-02
    asset[15]  asset[9]  1.2806231049846642e-02
    asset[9]  asset[16]  -3.4207849714597102e-02
    asset[16]  asset[9]  -3.4207849714597102e-02
    asset[9]  asset[17]  -1.9866219307730408e-02
    asset[17]  asset[9]  -1.9866219307730408e-02
    asset[9]  asset[18]  2.1738921260212228e-02
    asset[18]  asset[9]  2.1738921260212228e-02
    asset[9]  asset[19]  -3.8076128185755127e-02
    asset[19]  asset[9]  -3.8076128185755127e-02
    asset[10]  asset[10]  1.0799326442763730e-02
    asset[10]  asset[11]  -8.1769735781949890e-03
    asset[11]  asset[10]  -8.1769735781949890e-03
    asset[10]  asset[12]  -2.0093095213668997e-02
    asset[12]  asset[10]  -2.0093095213668997e-02
    asset[10]  asset[13]  -6.4485336274902466e-03
    asset[13]  asset[10]  -6.4485336274902466e-03
    asset[10]  asset[14]  -1.1121582780046147e-02
    asset[14]  asset[10]  -1.1121582780046147e-02
    asset[10]  asset[15]  5.5733003476205545e-03
    asset[15]  asset[10]  5.5733003476205545e-03
    asset[10]  asset[16]  -9.3248192267654535e-03
    asset[16]  asset[10]  -9.3248192267654535e-03
    asset[10]  asset[17]  -9.4831495090673609e-03
    asset[17]  asset[10]  -9.4831495090673609e-03
    asset[10]  asset[18]  7.0761833030900294e-03
    asset[18]  asset[10]  7.0761833030900294e-03
    asset[10]  asset[19]  -1.5996956722564910e-02
    asset[19]  asset[10]  -1.5996956722564910e-02
    asset[11]  asset[11]  5.5913080378213242e-02
    asset[11]  asset[12]  3.0762909763124076e-02
    asset[12]  asset[11]  3.0762909763124076e-02
    asset[11]  asset[13]  1.7338132028361243e-02
    asset[13]  asset[11]  1.7338132028361243e-02
    asset[11]  asset[14]  3.9742566773155824e-02
    asset[14]  asset[11]  3.9742566773155824e-02
    asset[11]  asset[15]  -2.8995925398285730e-02
    asset[15]  asset[11]  -2.8995925398285730e-02
    asset[11]  asset[16]  2.7096986325378141e-02
    asset[16]  asset[11]  2.7096986325378141e-02
    asset[11]  asset[17]  5.0633060954664251e-02
    asset[17]  asset[11]  5.0633060954664251e-02
    asset[11]  asset[18]  -3.1545165218214377e-02
    asset[18]  asset[11]  -3.1545165218214377e-02
    asset[11]  asset[19]  2.9566640997703307e-02
    asset[19]  asset[11]  2.9566640997703307e-02
    asset[12]  asset[12]  5.4643498930334940e-02
    asset[12]  asset[13]  1.5042864184542355e-02
    asset[13]  asset[12]  1.5042864184542355e-02
    asset[12]  asset[14]  3.9990994297812443e-02
    asset[14]  asset[12]  3.9990994297812443e-02
    asset[12]  asset[15]  -2.0398076364926767e-02
    asset[15]  asset[12]  -2.0398076364926767e-02
    asset[12]  asset[16]  2.9771492230086231e-02
    asset[16]  asset[12]  2.9771492230086231e-02
    asset[12]  asset[17]  2.6321356573414133e-02
    asset[17]  asset[12]  2.6321356573414133e-02
    asset[12]  asset[18]  -2.5495249453351264e-02
    asset[18]  asset[12]  -2.5495249453351264e-02
    asset[12]  asset[19]  3.4604201496178946e-02
    asset[19]  asset[12]  3.4604201496178946e-02
    asset[13]  asset[13]  1.4537904968987712e-02
    asset[13]  asset[14]  1.3595931858691899e-02
    asset[14]  asset[13]  1.3595931858691899e-02
    asset[13]  asset[15]  -1.2903673283213991e-02
    asset[15]  asset[13]  -1.2903673283213991e-02
    asset[13]  asset[16]  1.1903465918685314e-02
    asset[16]  asset[13]  1.1903465918685314e-02
    asset[13]  asset[17]  1.8061491126906554e-02
    asset[17]  asset[13]  1.8061491126906554e-02
    asset[13]  asset[18]  -4.9724179391346162e-03
    asset[18]  asset[13]  -4.9724179391346162e-03
    asset[13]  asset[19]  1.4742781842397201e-02
    asset[19]  asset[13]  1.4742781842397201e-02
    asset[14]  asset[14]  4.2403906902081095e-02
    asset[14]  asset[15]  -2.3223667294920793e-02
    asset[15]  asset[14]  -2.3223667294920793e-02
    asset[14]  asset[16]  2.6910006796341791e-02
    asset[16]  asset[14]  2.6910006796341791e-02
    asset[14]  asset[17]  3.8856235435022687e-02
    asset[17]  asset[14]  3.8856235435022687e-02
    asset[14]  asset[18]  -2.6992151219791982e-02
    asset[18]  asset[14]  -2.6992151219791982e-02
    asset[14]  asset[19]  2.7995153531304551e-02
    asset[19]  asset[14]  2.7995153531304551e-02
    asset[15]  asset[15]  2.7809393275744939e-02
    asset[15]  asset[16]  -7.5805394343199557e-03
    asset[16]  asset[15]  -7.5805394343199557e-03
    asset[15]  asset[17]  -3.4838951025254770e-02
    asset[17]  asset[15]  -3.4838951025254770e-02
    asset[15]  asset[18]  2.0761354098206099e-02
    asset[18]  asset[15]  2.0761354098206099e-02
    asset[15]  asset[19]  -1.3031372269514023e-03
    asset[19]  asset[15]  -1.3031372269514023e-03
    asset[16]  asset[16]  3.1437051313278112e-02
    asset[16]  asset[17]  1.0503181606892502e-02
    asset[17]  asset[16]  1.0503181606892502e-02
    asset[16]  asset[18]  -1.1579397397383680e-02
    asset[18]  asset[16]  -1.1579397397383680e-02
    asset[16]  asset[19]  3.5206103378611853e-02
    asset[19]  asset[16]  3.5206103378611853e-02
    asset[17]  asset[17]  7.7469764395212928e-02
    asset[17]  asset[18]  -3.3267559681778018e-02
    asset[18]  asset[17]  -3.3267559681778018e-02
    asset[17]  asset[19]  1.1150227508646752e-02
    asset[19]  asset[17]  1.1150227508646752e-02
    asset[18]  asset[18]  2.7555987506695665e-02
    asset[18]  asset[19]  -8.5330067628330668e-03
    asset[19]  asset[18]  -8.5330067628330668e-03
    asset[19]  asset[19]  6.1678231629096289e-02
QCMATRIX   fixed_risk
    asset[0]  asset[0]  4.1047588420173621e-03
    asset[1]  asset[1]  2.1921881461635867e-03
    asset[2]  asset[2]  1.5461305775405190e-03
    asset[3]  asset[3]  4.7533258439801662e-03
    asset[4]  asset[4]  3.1687932831369913e-03
    asset[5]  asset[5]  1.0892221664616909e-03
    asset[6]  asset[6]  8.6605720024111670e-04
    asset[7]  asset[7]  2.8257226897331614e-04
    asset[8]  asset[8]  6.9250760691077530e-03
    asset[9]  asset[9]  5.0972431084941455e-03
    asset[10]  asset[10]  1.0745856600377145e-03
    asset[11]  asset[11]  6.0940045143917697e-03
    asset[12]  asset[12]  5.3005807077437040e-03
    asset[13]  asset[13]  1.5040978139776765e-03
    asset[14]  asset[14]  3.9924798231229745e-03
    asset[15]  asset[15]  2.7034907097840924e-03
    asset[16]  asset[16]  3.2639215149975311e-03
    asset[17]  asset[17]  7.5862001712485140e-03
    asset[18]  asset[18]  2.5933901090048669e-03
    asset[19]  asset[19]  5.7207909340682506e-03
ENDATA
